
  32    4
  10   10   10   10

   0   0   0   0   0   2 2 8 
  10  10  10  10  10   2 10 3 
   5  10  10  10  10   2 5 4 
  10  10  10  10  10   3 18 7 6 
   6  10  10  10  10   4 18 17 14 11 
   6  10  10  10  10   2 12 9 
   1  10  10  10  10   3 17 14 11 
   7  10  10  10  10   2 12 11 
  10  10  10  10  10   2 14 11 
   2  10  10  10  10   1 11 
   2  10  10  10  10   2 15 13 
   2  10  10  10  10   2 16 14 
   5  10  10  10  10   2 21 16 
   1  10  10  10  10   2 21 15 
   1  10  10  10  10   3 31 24 19 
   3  10  10  10  10   2 24 19 
   1  10  10  10  10   2 21 20 
   9  10  10  10  10   1 19 
   1  10  10  10  10   1 20 
   6  10  10  10  10   2 27 22 
   7  10  10  10  10   4 31 30 29 25 
   2  10  10  10  10   2 30 23 
   9  10  10  10  10   2 29 25 
   3  10  10  10  10   1 25 
   8  10  10  10  10   1 26 
   7  10  10  10  10   1 28 
   9  10  10  10  10   1 28 
   8  10  10  10  10   1 32
   8  10  10  10  10   1 32
   3  10  10  10  10   1 32
   5  10  10  10  10   1 32
   0   0   0   0   0   0 
